     Program PWSCF v.7.0 starts on 16May2023 at 15:20:58

     R & G space division:  proc/nbgrp/npool/nimage =      32

     Waiting for input...
     Reading input from standard input

     Current dimensions of program PWSCF are:
     Max number of different atomic species (ntypx) = 10
     Max number of k-points (npk) =  40000
     Max angular momentum in pseudopotentials (lmaxx) =  4

     gamma-point specific algorithms are used
     Found identity + (  0.0000 -0.5000 -0.5000) symmetry
     This is a supercell, fractional translations are disabled
     Message from routine setup:
     using ibrav=0 with symmetry is DISCOURAGED, use correct ibrav instead

     Subspace diagonalization in iterative solution of the eigenvalue problem:
     a serial algorithm will be used

     Using Slab Decomposition

     bravais-lattice index     =            0
     lattice parameter (alat)  =      13.4549  a.u.
     unit-cell volume          =    2435.7717 (a.u.)^3
     number of atoms/cell      =           24
     number of atomic types    =            2
     number of electrons       =       128.00
     number of Kohn-Sham states=           64
     kinetic-energy cutoff     =      87.2290  Ry
     charge density cutoff     =     348.9160  Ry
     scf convergence threshold =      4.8E-07
     mixing beta               =       0.4000
     number of iterations used =            8  plain     mixing
     Exchange-correlation= PBE
                           (   1   4   3   4   0   0   0)

     celldm(1)=  13.454850  celldm(2)=   0.000000  celldm(3)=   0.000000
     celldm(4)=   0.000000  celldm(5)=   0.000000  celldm(6)=   0.000000

     crystal axes: (cart. coord. in units of alat)
               a(1) = (   1.000000   0.000000   0.000000 )
               a(2) = (   0.000000   1.000000   0.000000 )
               a(3) = (   0.000000   0.000000   1.000000 )

     reciprocal axes: (cart. coord. in units 2 pi/alat)
               b(1) = (  1.000000  0.000000  0.000000 )
               b(2) = (  0.000000  1.000000  0.000000 )
               b(3) = (  0.000000  0.000000  1.000000 )

     PseudoPot. # 1 for O  read from file:
     ./O.upf
     MD5 check sum: 3d5cddc31923d5394b058af459539ef3
     Pseudo is Norm-conserving, Zval =  6.0
     Generated using ONCVPSP code by D. R. Hamann
     Using radial grid of 1130 points,  4 beta functions with:
                l(1) =   0
                l(2) =   0
                l(3) =   1
                l(4) =   1

     PseudoPot. # 2 for Si read from file:
     ./Si.upf
     MD5 check sum: 1b8a678fa4666b97a90375b25676fdd1
     Pseudo is Norm-conserving, Zval =  4.0
     Generated using ONCVPSP code by D. R. Hamann
     Using radial grid of 1177 points,  4 beta functions with:
                l(1) =   0
                l(2) =   0
                l(3) =   1
                l(4) =   1

     atomic species   valence    mass     pseudopotential
        O              6.00    15.99940     O ( 1.00)
        Si             4.00    28.08550     Si( 1.00)

     24 Sym. Ops. (no inversion) found

                                    s                        frac. trans.

      isym =  1     identity

 cryst.   s( 1) = (     1          0          0      )
                  (     0          1          0      )
                  (     0          0          1      )

 cart.    s( 1) = (  1.0000000  0.0000000  0.0000000 )
                  (  0.0000000  1.0000000  0.0000000 )
                  (  0.0000000  0.0000000  1.0000000 )

      isym =  2     180 deg rotation - cart. axis [0,0,1]

[...]

 cryst.   s( 9) = (     0          1          0      )
                  (     0          0          1      )
                  (     1          0          0      )

 cart.    s( 9) = (  0.0000000  0.0000000  1.0000000 )
                  (  1.0000000  0.0000000  0.0000000 )
                  (  0.0000000  1.0000000  0.0000000 )

[...]

 cryst.   s(10) = (     0         -1          0      )
                  (     0          0         -1      )
                  (     1          0          0      )

 cart.    s(10) = (  0.0000000  0.0000000  1.0000000 )
                  ( -1.0000000  0.0000000  0.0000000 )
                  (  0.0000000 -1.0000000  0.0000000 )

[...]

      isym = 12     120 deg rotation - cart. axis [-1,-1,1]

[...]

      isym = 13     inv. 180 deg rotation - cart. axis [1,1,0]

[...]

      isym = 24     inv.  90 deg rotation - cart. axis [1,0,0]

 cryst.   s(24) = (    -1          0          0      )
                  (     0          0         -1      )
                  (     0          1          0      )

 cart.    s(24) = ( -1.0000000  0.0000000  0.0000000 )
                  (  0.0000000  0.0000000  1.0000000 )
                  (  0.0000000 -1.0000000  0.0000000 )

   Cartesian axes

     site n.     atom                  positions (alat units)
         1           Si  tau(   1) = (   0.0000000   0.0000000   0.0000000  )
         2           Si  tau(   2) = (   0.2500000   0.2500000   0.2500000  )
         3           Si  tau(   3) = (   0.7500000   0.2500000   0.7500000  )
         4           Si  tau(   4) = (   0.2500000   0.7500000   0.7500000  )
         5           Si  tau(   5) = (   0.7500000   0.7500000   0.2500000  )
         6           Si  tau(   6) = (   0.0000000   0.5000000   0.5000000  )
         7           Si  tau(   7) = (   0.5000000   0.0000000   0.5000000  )
         8           Si  tau(   8) = (   0.5000000   0.5000000   0.0000000  )
         9           O   tau(   9) = (   0.1250000   0.1250000   0.1250000  )
        10           O   tau(  10) = (   0.8750000   0.1250000   0.8750000  )
        11           O   tau(  11) = (   0.1250000   0.8750000   0.8750000  )
        12           O   tau(  12) = (   0.8750000   0.8750000   0.1250000  )
        13           O   tau(  13) = (   0.1250000   0.6250000   0.6250000  )
        14           O   tau(  14) = (   0.6250000   0.1250000   0.6250000  )
        15           O   tau(  15) = (   0.6250000   0.6250000   0.1250000  )
        16           O   tau(  16) = (   0.8750000   0.6250000   0.3750000  )
        17           O   tau(  17) = (   0.3750000   0.1250000   0.3750000  )
        18           O   tau(  18) = (   0.3750000   0.6250000   0.8750000  )
        19           O   tau(  19) = (   0.1250000   0.3750000   0.3750000  )
        20           O   tau(  20) = (   0.6250000   0.8750000   0.3750000  )
        21           O   tau(  21) = (   0.6250000   0.3750000   0.8750000  )
        22           O   tau(  22) = (   0.8750000   0.3750000   0.6250000  )
        23           O   tau(  23) = (   0.3750000   0.8750000   0.6250000  )
        24           O   tau(  24) = (   0.3750000   0.3750000   0.1250000  )

   Crystallographic axes

     site n.     atom                  positions (cryst. coord.)
         1           Si  tau(   1) = (  0.0000000  0.0000000  0.0000000  )
         2           Si  tau(   2) = (  0.2500000  0.2500000  0.2500000  )
         3           Si  tau(   3) = (  0.7500000  0.2500000  0.7500000  )
         4           Si  tau(   4) = (  0.2500000  0.7500000  0.7500000  )
         5           Si  tau(   5) = (  0.7500000  0.7500000  0.2500000  )
         6           Si  tau(   6) = (  0.0000000  0.5000000  0.5000000  )
         7           Si  tau(   7) = (  0.5000000  0.0000000  0.5000000  )
         8           Si  tau(   8) = (  0.5000000  0.5000000  0.0000000  )
         9           O   tau(   9) = (  0.1250000  0.1250000  0.1250000  )
        10           O   tau(  10) = (  0.8750000  0.1250000  0.8750000  )
        11           O   tau(  11) = (  0.1250000  0.8750000  0.8750000  )
        12           O   tau(  12) = (  0.8750000  0.8750000  0.1250000  )
        13           O   tau(  13) = (  0.1250000  0.6250000  0.6250000  )
        14           O   tau(  14) = (  0.6250000  0.1250000  0.6250000  )
        15           O   tau(  15) = (  0.6250000  0.6250000  0.1250000  )
        16           O   tau(  16) = (  0.8750000  0.6250000  0.3750000  )
        17           O   tau(  17) = (  0.3750000  0.1250000  0.3750000  )
        18           O   tau(  18) = (  0.3750000  0.6250000  0.8750000  )
        19           O   tau(  19) = (  0.1250000  0.3750000  0.3750000  )
        20           O   tau(  20) = (  0.6250000  0.8750000  0.3750000  )
        21           O   tau(  21) = (  0.6250000  0.3750000  0.8750000  )
        22           O   tau(  22) = (  0.8750000  0.3750000  0.6250000  )
        23           O   tau(  23) = (  0.3750000  0.8750000  0.6250000  )
        24           O   tau(  24) = (  0.3750000  0.3750000  0.1250000  )

     number of k points=     1
                       cart. coord. in units 2pi/alat
        k(    1) = (   0.0000000   0.0000000   0.0000000), wk =   2.0000000

                       cryst. coord.
        k(    1) = (   0.0000000   0.0000000   0.0000000), wk =   2.0000000

     Initial potential from superposition of free atoms

     starting charge     127.9954, renormalised to     128.0000
     Starting wfcs are   96 randomized atomic wfcs

     Self-consistent Calculation

     iteration #  1     ecut=    87.23 Ry     beta= 0.40
     Davidson diagonalization with overlap

     ethr =  1.00E-02,  avg # of iterations =  2.0

     total energy              =    -575.06451278 Ry
     estimated scf accuracy    <       7.12082044 Ry

[...]

     total energy              =    -576.44487478 Ry
     estimated scf accuracy    <       0.00000090 Ry

     iteration # 10     ecut=    87.23 Ry     beta= 0.40
     Davidson diagonalization with overlap

     ethr =  7.02E-10,  avg # of iterations =  2.0

     End of self-consistent calculation

          k = 0.0000 0.0000 0.0000 ( 16686 PWs)   bands (ev):

   -18.8907 -17.9065 -17.9065 -17.9065 -17.9065 -17.9064 -17.9064 -16.5544
   -16.5544 -16.5544 -16.5544 -16.5543 -16.5543 -16.5225 -16.5225 -16.5225
    -9.3343  -6.9256  -6.9256  -6.9255  -6.9255  -6.9255  -6.9255  -5.1538
    -5.1538  -5.1537  -4.5232  -4.5231  -4.5231  -4.5231  -4.5231  -4.5231
    -2.1175  -2.1175  -2.1175  -2.1175  -2.1175  -2.1174  -1.8753  -1.8753
    -1.6833  -1.6833  -1.6833  -1.6833  -1.6833  -1.6833  -1.2227  -1.2227
    -1.2227  -0.5656  -0.5656  -0.5656  -0.5656  -0.5656  -0.5656   0.3401
     0.3401   0.3401   0.3401   0.3401   0.3401   1.1044   1.1044   1.1044

     occupation numbers
     1.0000   1.0000   1.0000   1.0000   1.0000   1.0000   1.0000   1.0000
     1.0000   1.0000   1.0000   1.0000   1.0000   1.0000   1.0000   1.0000
     1.0000   1.0000   1.0000   1.0000   1.0000   1.0000   1.0000   1.0000
     1.0000   1.0000   1.0000   1.0000   1.0000   1.0000   1.0000   1.0000
     1.0000   1.0000   1.0000   1.0000   1.0000   1.0000   1.0000   1.0000
     1.0000   1.0000   1.0000   1.0000   1.0000   1.0000   1.0000   1.0000
     1.0000   1.0000   1.0000   1.0000   1.0000   1.0000   1.0000   1.0000
     1.0000   1.0000   1.0000   1.0000   1.0000   1.0000   1.0000   1.0000

     highest occupied level (ev):     1.1044

!    total energy              =    -576.44487486 Ry
     estimated scf accuracy    <       0.00000006 Ry

     The total energy is the sum of the following terms:
     one-electron contribution =    -452.46995139 Ry
     hartree contribution      =     286.28149978 Ry
     xc contribution           =    -137.34031656 Ry
     ewald contribution        =    -272.91610669 Ry

     convergence has been achieved in  10 iterations
 SUMFORCE            1  =   -3.7488872224637720E-006
 SUMFORCE            2  =    2.7614657461865918E-006
 SUMFORCE            3  =    2.2377074654083784E-006

     Forces acting on atoms (cartesian axes, Ry/au):

     atom    1 type  2   force =     0.00000000    0.00000000    0.00000000
     atom    2 type  2   force =     0.00000032    0.00000032    0.00000032
     atom    3 type  2   force =    -0.00000032    0.00000032   -0.00000032
     atom    4 type  2   force =     0.00000032   -0.00000032   -0.00000032
     atom    5 type  2   force =    -0.00000032   -0.00000032    0.00000032
     atom    6 type  2   force =     0.00000000    0.00000000    0.00000000
     atom    7 type  2   force =     0.00000000    0.00000000    0.00000000
     atom    8 type  2   force =     0.00000000    0.00000000    0.00000000
     atom    9 type  1   force =    -0.00000009   -0.00000009   -0.00000009
     atom   10 type  1   force =     0.00000009   -0.00000009    0.00000009
     atom   11 type  1   force =    -0.00000009    0.00000009    0.00000009
     atom   12 type  1   force =     0.00000009    0.00000009   -0.00000009
     atom   13 type  1   force =    -0.00000037    0.00000035    0.00000035
     atom   14 type  1   force =     0.00000035   -0.00000037    0.00000035
     atom   15 type  1   force =     0.00000035    0.00000035   -0.00000037
     atom   16 type  1   force =     0.00000037    0.00000035   -0.00000035
     atom   17 type  1   force =    -0.00000035   -0.00000037   -0.00000035
     atom   18 type  1   force =    -0.00000035    0.00000035    0.00000037
     atom   19 type  1   force =    -0.00000037   -0.00000035   -0.00000035
     atom   20 type  1   force =     0.00000035    0.00000037   -0.00000035
     atom   21 type  1   force =     0.00000035   -0.00000035    0.00000037
     atom   22 type  1   force =     0.00000037   -0.00000035    0.00000035
     atom   23 type  1   force =    -0.00000035    0.00000037    0.00000035
     atom   24 type  1   force =    -0.00000035   -0.00000035   -0.00000037
     The non-local contrib.  to forces
     atom    1 type  2   force =     0.00000000    0.00000000    0.00000000
     atom    2 type  2   force =    -0.00000001   -0.00000001   -0.00000001
     atom    3 type  2   force =     0.00000001   -0.00000001    0.00000001
     atom    4 type  2   force =    -0.00000001    0.00000001    0.00000001
     atom    5 type  2   force =     0.00000001    0.00000001   -0.00000001
     atom    6 type  2   force =     0.00000000    0.00000000    0.00000000
     atom    7 type  2   force =     0.00000000    0.00000000    0.00000000
     atom    8 type  2   force =     0.00000000    0.00000000    0.00000000
     atom    9 type  1   force =    -0.00000138   -0.00000138   -0.00000138
     atom   10 type  1   force =     0.00000138   -0.00000138    0.00000138
     atom   11 type  1   force =    -0.00000138    0.00000138    0.00000138
     atom   12 type  1   force =     0.00000138    0.00000138   -0.00000138
     atom   13 type  1   force =    -0.00000033    0.00000110    0.00000110
     atom   14 type  1   force =     0.00000110   -0.00000033    0.00000110
     atom   15 type  1   force =     0.00000110    0.00000110   -0.00000033
     atom   16 type  1   force =     0.00000033    0.00000110   -0.00000110
     atom   17 type  1   force =    -0.00000110   -0.00000033   -0.00000110
     atom   18 type  1   force =    -0.00000110    0.00000110    0.00000033
     atom   19 type  1   force =    -0.00000033   -0.00000110   -0.00000110
     atom   20 type  1   force =     0.00000110    0.00000033   -0.00000110
     atom   21 type  1   force =     0.00000110   -0.00000110    0.00000033
     atom   22 type  1   force =     0.00000033   -0.00000110    0.00000110
     atom   23 type  1   force =    -0.00000110    0.00000033    0.00000110
     atom   24 type  1   force =    -0.00000110   -0.00000110   -0.00000033
     The ionic contribution  to forces
     atom    1 type  2   force =     0.00000000    0.00000000    0.00000000
     atom    2 type  2   force =     0.00000000    0.00000000   -0.00000000
     atom    3 type  2   force =     0.00000000   -0.00000000   -0.00000000
     atom    4 type  2   force =    -0.00000000    0.00000000   -0.00000000
     atom    5 type  2   force =     0.00000000    0.00000000   -0.00000000
     atom    6 type  2   force =     0.00000000    0.00000000    0.00000000
     atom    7 type  2   force =     0.00000000    0.00000000    0.00000000
     atom    8 type  2   force =     0.00000000    0.00000000    0.00000000
     atom    9 type  1   force =    -0.00000000   -0.00000000   -0.00000000
     atom   10 type  1   force =    -0.00000000   -0.00000000   -0.00000000
     atom   11 type  1   force =    -0.00000000   -0.00000000   -0.00000000
     atom   12 type  1   force =    -0.00000000   -0.00000000   -0.00000000
     atom   13 type  1   force =    -0.00000000    0.00000000    0.00000000
     atom   14 type  1   force =     0.00000000   -0.00000000    0.00000000
     atom   15 type  1   force =     0.00000000    0.00000000   -0.00000000
     atom   16 type  1   force =    -0.00000000   -0.00000000   -0.00000000
     atom   17 type  1   force =     0.00000000    0.00000000    0.00000000
     atom   18 type  1   force =    -0.00000000   -0.00000000   -0.00000000
     atom   19 type  1   force =     0.00000000    0.00000000    0.00000000
     atom   20 type  1   force =    -0.00000000   -0.00000000   -0.00000000
     atom   21 type  1   force =    -0.00000000   -0.00000000   -0.00000000
     atom   22 type  1   force =    -0.00000000   -0.00000000   -0.00000000
     atom   23 type  1   force =    -0.00000000   -0.00000000   -0.00000000
     atom   24 type  1   force =     0.00000000    0.00000000    0.00000000
     The local contribution  to forces
     atom    1 type  2   force =     0.00000133   -0.00000081   -0.00000016
     atom    2 type  2   force =     0.00000057   -0.00000164   -0.00000059
     atom    3 type  2   force =    -0.00000041   -0.00000058   -0.00000104
     atom    4 type  2   force =    -0.00000163    0.00000190    0.00000110
     atom    5 type  2   force =    -0.00000034    0.00000145   -0.00000036
     atom    6 type  2   force =     0.00000022    0.00000154    0.00000116
     atom    7 type  2   force =     0.00000091   -0.00000143   -0.00000161
     atom    8 type  2   force =    -0.00000139    0.00000163    0.00000315
     atom    9 type  1   force =    -0.00000120   -0.00000029   -0.00000097
     atom   10 type  1   force =    -0.00000115   -0.00000438    0.00000252
     atom   11 type  1   force =     0.00000003   -0.00000065    0.00000112
     atom   12 type  1   force =    -0.00000285    0.00000238   -0.00000011
     atom   13 type  1   force =    -0.00000147   -0.00000048    0.00000162
     atom   14 type  1   force =     0.00000085   -0.00000126   -0.00000105
     atom   15 type  1   force =     0.00000090    0.00000322   -0.00000005
     atom   16 type  1   force =    -0.00000627    0.00000078   -0.00000065
     atom   17 type  1   force =    -0.00000104    0.00000184   -0.00000130
     atom   18 type  1   force =     0.00000199    0.00000061    0.00000133
     atom   19 type  1   force =    -0.00000044   -0.00000346   -0.00000052
     atom   20 type  1   force =    -0.00000116   -0.00000099    0.00000086
     atom   21 type  1   force =    -0.00000053   -0.00000191   -0.00000262
     atom   22 type  1   force =     0.00000102    0.00000085    0.00000130
     atom   23 type  1   force =    -0.00000169   -0.00000293   -0.00000179
     atom   24 type  1   force =     0.00000026   -0.00000037    0.00000252
     The core correction contribution to forces
     atom    1 type  2   force =     0.00000000    0.00000000    0.00000000
     atom    2 type  2   force =     0.00000000    0.00000000    0.00000000
     atom    3 type  2   force =     0.00000000    0.00000000    0.00000000
     atom    4 type  2   force =     0.00000000    0.00000000    0.00000000
     atom    5 type  2   force =     0.00000000    0.00000000    0.00000000
     atom    6 type  2   force =     0.00000000    0.00000000    0.00000000
     atom    7 type  2   force =     0.00000000    0.00000000    0.00000000
     atom    8 type  2   force =     0.00000000    0.00000000    0.00000000
     atom    9 type  1   force =     0.00000000    0.00000000    0.00000000
     atom   10 type  1   force =     0.00000000    0.00000000    0.00000000
     atom   11 type  1   force =     0.00000000    0.00000000    0.00000000
     atom   12 type  1   force =     0.00000000    0.00000000    0.00000000
     atom   13 type  1   force =     0.00000000    0.00000000    0.00000000
     atom   14 type  1   force =     0.00000000    0.00000000    0.00000000
     atom   15 type  1   force =     0.00000000    0.00000000    0.00000000
     atom   16 type  1   force =     0.00000000    0.00000000    0.00000000
     atom   17 type  1   force =     0.00000000    0.00000000    0.00000000
     atom   18 type  1   force =     0.00000000    0.00000000    0.00000000
     atom   19 type  1   force =     0.00000000    0.00000000    0.00000000
     atom   20 type  1   force =     0.00000000    0.00000000    0.00000000
     atom   21 type  1   force =     0.00000000    0.00000000    0.00000000
     atom   22 type  1   force =     0.00000000    0.00000000    0.00000000
     atom   23 type  1   force =     0.00000000    0.00000000    0.00000000
     atom   24 type  1   force =     0.00000000    0.00000000    0.00000000
     The Hubbard contrib.    to forces
     atom    1 type  2   force =     0.00000000    0.00000000    0.00000000
     atom    2 type  2   force =     0.00000000    0.00000000    0.00000000
     atom    3 type  2   force =     0.00000000    0.00000000    0.00000000
     atom    4 type  2   force =     0.00000000    0.00000000    0.00000000
     atom    5 type  2   force =     0.00000000    0.00000000    0.00000000
     atom    6 type  2   force =     0.00000000    0.00000000    0.00000000
     atom    7 type  2   force =     0.00000000    0.00000000    0.00000000
     atom    8 type  2   force =     0.00000000    0.00000000    0.00000000
     atom    9 type  1   force =     0.00000000    0.00000000    0.00000000
     atom   10 type  1   force =     0.00000000    0.00000000    0.00000000
     atom   11 type  1   force =     0.00000000    0.00000000    0.00000000
     atom   12 type  1   force =     0.00000000    0.00000000    0.00000000
     atom   13 type  1   force =     0.00000000    0.00000000    0.00000000
     atom   14 type  1   force =     0.00000000    0.00000000    0.00000000
     atom   15 type  1   force =     0.00000000    0.00000000    0.00000000
     atom   16 type  1   force =     0.00000000    0.00000000    0.00000000
     atom   17 type  1   force =     0.00000000    0.00000000    0.00000000
     atom   18 type  1   force =     0.00000000    0.00000000    0.00000000
     atom   19 type  1   force =     0.00000000    0.00000000    0.00000000
     atom   20 type  1   force =     0.00000000    0.00000000    0.00000000
     atom   21 type  1   force =     0.00000000    0.00000000    0.00000000
     atom   22 type  1   force =     0.00000000    0.00000000    0.00000000
     atom   23 type  1   force =     0.00000000    0.00000000    0.00000000
     atom   24 type  1   force =     0.00000000    0.00000000    0.00000000
     The SCF correction term to forces
     atom    1 type  2   force =    -0.00000273    0.00000180    0.00000108
     atom    2 type  2   force =     0.00000014    0.00000133    0.00000135
     atom    3 type  2   force =     0.00000056    0.00000275   -0.00000024
     atom    4 type  2   force =     0.00000265   -0.00000270   -0.00000167
     atom    5 type  2   force =     0.00000275   -0.00000160   -0.00000032
     atom    6 type  2   force =    -0.00000125   -0.00000189    0.00000043
     atom    7 type  2   force =    -0.00000177    0.00000227    0.00000213
     atom    8 type  2   force =     0.00000000   -0.00000188   -0.00000290
     atom    9 type  1   force =     0.00000237    0.00000311    0.00000316
     atom   10 type  1   force =    -0.00000273    0.00000612   -0.00000360
     atom   11 type  1   force =     0.00000052   -0.00000030   -0.00000160
     atom   12 type  1   force =     0.00000052   -0.00000137   -0.00000050
     atom   13 type  1   force =     0.00000049   -0.00000284   -0.00000112
     atom   14 type  1   force =     0.00000001    0.00000349    0.00000134
     atom   15 type  1   force =    -0.00000198   -0.00000432   -0.00000361
     atom   16 type  1   force =     0.00000525   -0.00000346    0.00000190
     atom   17 type  1   force =    -0.00000025    0.00000193    0.00000085
     atom   18 type  1   force =     0.00000195   -0.00000373    0.00000046
     atom   19 type  1   force =    -0.00000030    0.00000255    0.00000171
     atom   20 type  1   force =     0.00000178    0.00000116   -0.00000036
     atom   21 type  1   force =    -0.00000097    0.00000250    0.00000231
     atom   22 type  1   force =    -0.00000033    0.00000016   -0.00000110
     atom   23 type  1   force =     0.00000214    0.00000231    0.00000163
     atom   24 type  1   force =     0.00000096    0.00000033   -0.00000297

     Total force =     0.000002     Total SCF correction =     0.000019
     SCF correction compared to forces is large: reduce conv_thr to get better values

     Computing stress (Cartesian axis) and pressure

          total   stress  (Ry/bohr**3)                   (kbar)     P=      275.19
   0.00187071   0.00000000   0.00000000          275.19        0.00        0.00
   0.00000000   0.00187071   0.00000000            0.00      275.19        0.00
   0.00000000   0.00000000   0.00187071            0.00        0.00      275.19

     kinetic stress (kbar)  16414.21      0.00      0.00
                                0.00  16414.21      0.00
                                0.00      0.00  16414.21

     local   stress (kbar) -13590.65      0.00      0.00
                                0.00 -13590.65     -0.00
                                0.00     -0.00 -13590.65

     nonloc. stress (kbar)   -205.46      0.00      0.00
                                0.00   -205.46      0.00
                                0.00      0.00   -205.46

     hartree stress (kbar)   5763.19      0.00     -0.00
                                0.00   5763.19      0.00
                               -0.00      0.00   5763.19

     exc-cor stress (kbar)  -2611.97      0.00      0.00
                                0.00  -2611.97     -0.00
                                0.00     -0.00  -2611.97

     corecor stress (kbar)      0.00      0.00      0.00
                                0.00      0.00      0.00
                                0.00      0.00      0.00

     ewald   stress (kbar)  -5494.13     -0.00     -0.00
                               -0.00  -5494.13     -0.00
                               -0.00     -0.00  -5494.13

     hubbard stress (kbar)      0.00      0.00      0.00
                                0.00      0.00      0.00
                                0.00      0.00      0.00

     DFT-D   stress (kbar)      0.00      0.00      0.00
                                0.00      0.00      0.00
                                0.00      0.00      0.00

     XDM     stress (kbar)      0.00      0.00      0.00
                                0.00      0.00      0.00
                                0.00      0.00      0.00

     dft-nl  stress (kbar)      0.00      0.00      0.00
                                0.00      0.00      0.00
                                0.00      0.00      0.00

     TS-vdW  stress (kbar)      0.00      0.00      0.00
                                0.00      0.00      0.00
                                0.00      0.00      0.00

[...]

                                0.00      0.00      0.00

     Writing all to output data dir ./out/pwscf.save/

     General routines

     Parallel routines

   This run was terminated on:  15:21: 0  16May2023

   JOB DONE.